NAME: instance_1443
TYPE: TSP
DIMENSION: 20
EDGE_WEIGHT_TYPE: EUC_2D
NODE_COORD_SECTION
0 25.23 22.87
1 46.16 63.42
2 71.47 71.76
3 48.67 66.34
4 62.27 46.62
5 82.95 19.32
6 86.12 24.96
7 17.45 3.36
8 48.47 10.17
9 37.78 26.73
10 58.98 62.88
11 7.69 38.33
12 91.41 97.84
13 11.14 9.39
14 74.82 6.93
15 98.33 21.58
16 59.57 52.52
17 35.92 55.46
18 58.46 14.32
19 45.46 88.48
EOF
